c 218_3_checker.cnf
c
c field = 218
c formula set type = 3_checker
c
p cnf 4 22
428 
430 
432 
-426 
429 
431 
433 
-427 
428 
430 
432 
-436 
429 
431 
433 
-437 
430 
432 
436 
-428 
431 
433 
437 
-429 
430 
432 
436 
-438 
431 
433 
437 
-439 
432 
436 
438 
-430 
433 
437 
439 
-431 
432 
436 
438 
-440 
433 
437 
439 
-441 
436 
438 
440 
-432 
437 
439 
441 
-433 
436 
438 
440 
-442 
437 
439 
441 
-443 
344 
374 
404 
-314 
345 
375 
405 
-315 
338 
370 
402 
-306 
339 
371 
403 
-307 
350 
378 
406 
-322 
351 
379 
407 
-323 
